Route #1: 29
Route #2: 30 3 1 26
Route #3: 5 31
Route #4: 21 22 13
Route #5: 9
Route #6: 11
Route #7: 4 14
Route #8: 28 15 27
Route #9: 18
Route #10: 7 19
Route #11: 25 17 2
Route #12: 10
Route #13: 24 20 6 12
Route #14: 16 8 23

Cost: 2819.938088664852
